5 10 144
1 3 1 6 48 
2 5 2 1 2 40 72 76 100 
2 4 1 2 2 24 64 68 90 
3 3 2 5 3 1 3 50 86 86 112 112 130 
3 5 1 1 1 4 2 10 38 56 74 76 120 
1 2 1 26 58 
3 3 3 5 4 1 4 88 102 114 132 132 144 
2 2 3 4 3 102 120 122 144 
14 5 1 4 1 4 1 5 2 5 2 1 1 1 1 1 2 3 3 3 3 1 3 1 3 4 3 4 3 0 10 10 18 18 24 30 38 38 40 40 46 46 56 74 76 78 86 86 88 94 100 100 108 114 120 120 122 
16 3 1 2 1 2 1 3 2 3 2 2 2 2 2 4 2 5 3 5 3 2 3 2 3 5 4 5 4 1 4 1 4 0 6 6 14 14 26 38 48 48 50 50 58 58 68 68 76 76 78 78 86 86 92 92 102 108 112 112 114 128 130 130 132 
